p edge 20 48 8
v 2 5 14
v 3 4 7 11
v 6 1 6 8 12 19 20
v 1 16
v 1 15
v 3 10 13 17
v 2 9 18
v 2 2 3
e 1 3
e 1 4
e 1 9
e 1 17
e 1 18
e 1 20
e 2 4
e 2 18
e 3 5
e 3 6
e 3 9
e 3 10
e 3 13
e 3 16
e 4 12
e 4 20
e 5 7
e 5 10
e 5 13
e 5 16
e 5 20
e 6 10
e 6 11
e 6 14
e 6 15
e 7 11
e 7 13
e 7 14
e 7 17
e 8 10
e 8 15
e 8 16
e 8 19
e 9 17
e 10 19
e 10 20
e 11 15
e 11 16
e 11 20
e 12 19
e 13 17
e 14 15
e 14 16
e 14 18
e 14 20
e 15 16
e 15 18
e 15 20
